solution status: time limit reached
objective value:                          34201.80472
y#1                                                 1 	(obj:5700)
y#2                                                 1 	(obj:5700)
y#25                                                1 	(obj:5700)
y#26                                                1 	(obj:5700)
y#28                                                1 	(obj:5700)
y#56                                                1 	(obj:5700)
x#1#56                                              1 	(obj:0.02125)
x#2#1                                               1 	(obj:0.01496)
x#3#56                                              1 	(obj:0.03757)
x#4#28                                              1 	(obj:0.02822)
x#5#1                                               1 	(obj:0.01836)
x#6#25                                              1 	(obj:0.03689)
x#7#26                                              1 	(obj:0.03332)
x#8#2                                               1 	(obj:0.04692)
x#9#28                                              1 	(obj:0.02754)
x#10#26                                             1 	(obj:0.02856)
x#11#26                                             1 	(obj:0.02703)
x#12#26                                             1 	(obj:0.01513)
x#13#1                                              1 	(obj:0.0306)
x#14#2                                              1 	(obj:0.00646)
x#15#1                                              1 	(obj:0.02312)
x#16#56                                             1 	(obj:0.02006)
x#17#28                                             1 	(obj:0.03927)
x#18#1                                              1 	(obj:0.0289)
x#19#28                                             1 	(obj:0.03434)
x#20#28                                             1 	(obj:0.03009)
x#21#25                                             1 	(obj:0.05644)
x#22#2                                              1 	(obj:0.04811)
x#23#26                                             1 	(obj:0.03485)
x#24#26                                             1 	(obj:0.0442)
x#25#28                                             1 	(obj:0.02074)
x#26#56                                             1 	(obj:0.00748)
x#27#26                                             1 	(obj:0.01496)
x#28#1                                              1 	(obj:0.04522)
x#29#56                                             1 	(obj:0.01122)
x#30#2                                              1 	(obj:0.00289)
x#31#26                                             1 	(obj:0.03213)
x#32#26                                             1 	(obj:0.0425)
x#33#56                                             1 	(obj:0.0204)
x#34#28                                             1 	(obj:0.04352)
x#35#28                                             1 	(obj:0.00884)
x#36#56                                             1 	(obj:0.02108)
x#37#28                                             1 	(obj:0.05168)
x#38#25                                             1 	(obj:0.05899)
x#39#26                                             1 	(obj:0.03094)
x#40#1                                              1 	(obj:0.0476)
x#41#26                                             1 	(obj:0.02295)
x#42#1                                              1 	(obj:0.0527)
x#43#25                                             1 	(obj:0.04675)
x#44#56                                             1 	(obj:0.01853)
x#45#56                                             1 	(obj:0.02975)
x#46#56                                             1 	(obj:0.01887)
x#47#1                                              1 	(obj:0.04879)
x#48#2                                              1 	(obj:0.02771)
x#49#1                                              1 	(obj:0.03315)
x#50#2                                              1 	(obj:0.0408)
x#51#56                                             1 	(obj:0.03536)
x#52#25                                             1 	(obj:0.02091)
x#53#25                                             1 	(obj:0.0442)
x#54#28                                             1 	(obj:0.0306)
x#55#26                                             1 	(obj:0.01751)
x#56#1                                              1 	(obj:0.03757)
x#57#2                                              1 	(obj:0.03995)
x#58#28                                             1 	(obj:0.0153)
x#59#28                                             1 	(obj:0.02193)
x#60#25                                             1 	(obj:0.00901)
